Route #1: 43 29 25 30 16 
Route #2: 12 22 27 28 19 37 23 32 8 39 
Route #3: 35 44 41 38 40 33 7 
Route #4: 3 9 31 21 18 26 
Route #5: 13 4 5 10 14 17 24 
Route #6: 2 36 11 1 42 6 34 15 20 
cost 776.683